
  12    4
  10   10   10   10

   0   0   0   0   0   4 2 3 4 11 
   3  10  10  10  10   5 10 9 7 6 5 
  10  10  10  10  10   4 9 8 7 6 
   7  10  10  10  10   2 7 6 
   2  10  10  10  10   1 8 
   9  10  10  10  10   1 12
   7  10  10  10  10   1 12
  10  10  10  10  10   1 12
  10  10  10  10  10   1 12
   3  10  10  10  10   1 12
   9  10  10  10  10   1 12
   0   0   0   0   0   0 
